Geometry = GenFormat {
 <<< "geo.gen"
}

Driver = ConjugateGradient {
 MovedAtoms = 1:-1
 MaxForceComponent = 1E-5
 MaxSteps = -1
 OutputPrefix = "geom.out"
 LatticeOpt = Yes
}

Hamiltonian = DFTB {
 ThirdOrderFull = Yes
 Scc = Yes
 HubbardDerivs {
  C = -0.1492
 }
 SlaterKosterFiles = Type2FileNames {
  Prefix = "/home/joe/src/dftbplus-20.2.1/slako/3ob/3ob-3-1/"
  Separator = "-"
  Suffix = ".skf"
 }
 MaxAngularMomentum {
  C = "p"
 }
 Dispersion = DftD3 {
 Damping = BeckeJohnson {
  a1 = 0.746
  a2 = 4.191
 }
  s6 = 1.0
  s8 = 3.209
 }
 HCorrection = Damping {
  Exponent = 4.00
 }
 KPointsAndWeights = SupercellFolding {
  4   0   0
  0   4   0
  0   0   4
  0   0   0
 }
}

Options {
 WriteResultsTag = Yes
}

Analysis {
 CalculateForces = Yes
}
