Geometry = GenFormat {
4 F
C
1 1 0.000000000000       0.000000000000       0.250000000000
2 1 0.000000000000       0.000000000000       0.750000000000
3 1 0.333333330000       0.666666667000       0.250000000000
4 1 0.666666670000       0.333333333000       0.750000000000
0.000000000000       0.000000000000       0.000000000000
2.456000000000       0.000000000000       0.000000000000
-1.228000000000      2.126958391695       0.000000000000
0.000000000000       0.000000000000       6.696000000000
}
Driver = ConjugateGradient {
  MovedAtoms = 1:-1
  MaxForceComponent = 1E-5
  MaxSteps = -1
  OutputPrefix = "geom.out"
  LatticeOpt = Yes
  Pressure = 0.0000000000000000
  FixAngles = No
  Isotropic = No
  MaxLatticeStep = 0.20000000000000001
  MaxAtomStep = 0.20000000000000001
  StepSize = 100.00000000000000
  AppendGeometries = No
  ConvergentForcesOnly = Yes
  Constraints = {}
}
Hamiltonian = DFTB {
  ThirdOrderFull = Yes
  Scc = Yes
  HubbardDerivs = C {
-0.1492
  }
  SlaterKosterFiles = Type2FileNames {
    Prefix = "/home/joe/src/dftbplus-20.2.1/slako/3ob/3ob-3-1/"
    Separator = "-"
    Suffix = ".skf"
    LowerCaseTypeName = No
  }
  MaxAngularMomentum = C {
"p"
  }
  Dispersion = DftD3 {
    Damping = BeckeJohnson {
      a1 = 0.746
      a2 = 4.191
    }
    s6 = 1.0
    s8 = 3.209
    cutoff = 94.868329805051374
    cutoffcn = 40.000000000000000
    threebody = No
    hhrepulsion = No
  }
  HCorrection = Damping {
    Exponent = 4.00
  }
  KPointsAndWeights = SupercellFolding {
4   0   0
0   4   0
0   0   4
0   0   0
  }
  PolynomialRepulsive = {}
  ShellResolvedSCC = No
  OldSKInterpolation = No
  RangeSeparated = None {}
  ReadInitialCharges = No
  InitialCharges = {}
  SCCTolerance = 1.0000000000000001E-005
  EwaldParameter = 0.0000000000000000
  EwaldTolerance = 1.0000000000000001E-009
  SpinPolarisation = {}
  ElectricField = {}
  Solver = RelativelyRobust {}
  Charge = 0.0000000000000000
  MaxSCCIterations = 100
  OnSiteCorrection = {}
  Solvation = {}
  Electrostatics = GammaFunctional {}
  ThirdOrder = No
  Differentiation = FiniteDiff {
    Delta = 1.2207031250000000E-004
  }
  ForceEvaluation = "Traditional"
  Mixer = Broyden {
    MixingParameter = 0.20000000000000001
    InverseJacobiWeight = 1.0000000000000000E-002
    MinimalWeight = 1.0000000000000000
    MaximalWeight = 100000.00000000000
    WeightFactor = 1.0000000000000000E-002
  }
  Filling = Fermi {
    Temperature = 0.0000000000000000
    IndependentKFilling = No
  }
}
Options = {
  WriteResultsTag = Yes
  WriteDetailedOut = Yes
  WriteAutotestTag = No
  WriteDetailedXML = No
  RandomSeed = 0
  WriteHS = No
  WriteRealHS = No
  MinimiseMemoryUsage = No
  ShowFoldedCoords = No
  TimingVerbosity = 1
  WriteChargesAsText = No
}
Analysis = {
  CalculateForces = Yes
  ProjectStates = {}
  WriteEigenvectors = No
  WriteBandOut = Yes
  MullikenAnalysis = Yes
  WriteNetCharges = No
  AtomResolvedEnergies = No
  EigenvectorsAsText = No
}
ParserOptions = {
  ParserVersion = 9
  WriteHSDInput = Yes
  StopAfterParsing = No
  IgnoreUnprocessedNodes = No
}
Reks = None {}
ExcitedState = {}
